21
100 1 1 1 1 1 1 1 1 1 1 1 1 1 1 1 1 1 1 1 1
20
7 1 0 0 0 0 0 0 0 0 0 0 0 0 0 0 0 0 0 0 0 70
12 0 1 0 0 0 0 0 0 0 0 0 0 0 0 0 0 0 0 0 0 95
36 0 0 1 0 0 0 0 0 0 0 0 0 0 0 0 0 0 0 0 0 95
49 0 0 0 1 0 0 0 0 0 0 0 0 0 0 0 0 0 0 0 0 99
43 0 0 0 0 1 0 0 0 0 0 0 0 0 0 0 0 0 0 0 0 86
39 0 0 0 0 0 1 0 0 0 0 0 0 0 0 0 0 0 0 0 0 87
28 0 0 0 0 0 0 1 0 0 0 0 0 0 0 0 0 0 0 0 0 80
87 0 0 0 0 0 0 0 1 0 0 0 0 0 0 0 0 0 0 0 0 42
41 0 0 0 0 0 0 0 0 1 0 0 0 0 0 0 0 0 0 0 0 15
27 0 0 0 0 0 0 0 0 0 1 0 0 0 0 0 0 0 0 0 0 87
32 0 0 0 0 0 0 0 0 0 0 1 0 0 0 0 0 0 0 0 0 11
25 0 0 0 0 0 0 0 0 0 0 0 1 0 0 0 0 0 0 0 0 99
1 0 0 0 0 0 0 0 0 0 0 0 0 1 0 0 0 0 0 0 0 73
27 0 0 0 0 0 0 0 0 0 0 0 0 0 1 0 0 0 0 0 0 43
48 0 0 0 0 0 0 0 0 0 0 0 0 0 0 1 0 0 0 0 0 74
31 0 0 0 0 0 0 0 0 0 0 0 0 0 0 0 1 0 0 0 0 76
22 0 0 0 0 0 0 0 0 0 0 0 0 0 0 0 0 1 0 0 0 78
39 0 0 0 0 0 0 0 0 0 0 0 0 0 0 0 0 0 1 0 0 76
25 0 0 0 0 0 0 0 0 0 0 0 0 0 0 0 0 0 0 1 0 84
49 0 0 0 0 0 0 0 0 0 0 0 0 0 0 0 0 0 0 0 1 96
